param M := 5;  # Number of rows
param N := 5;  # Number of columns
param PIRELLONE :  1 2 3 4 5 :=
           1   1 1 0 1 1
           2   1 1 0 1 1
           3   1 1 0 1 1
           4   1 1 0 1 1
           5   1 1 0 1 1;
end;
